Test: battleship-16-31-sat.cnf
Options: 
WARNING: for repeatability, setting FPU to use double precision
============================[ Problem Statistics ]=============================
|                                                                             |
|  Number of symmetries:           25                                         |
|  Number of invertingSyms:         0                                         |
|  Number of variables:           496                                         |
|  Number of clauses:            3976                                         |
|  Parse time:                   0.00 s                                       |
|                                                                             |
============================[ Search Statistics ]==============================
| Conflicts |          ORIGINAL         |          LEARNT          | Progress |
|           |    Vars  Clauses Literals |    Limit  Clauses Lit/Cl |          |
===============================================================================
|       100 |     496     3976    15376 |     1457      135    265 |  0.000 % |
|       250 |     496     3976    15376 |     1603      305    204 |  0.000 % |
|       475 |     496     3976    15376 |     1764      553    185 |  0.000 % |
|       812 |     496     3976    15376 |     1940      957    169 |  0.000 % |
|      1318 |     496     3976    15376 |     2134     1603    174 |  0.000 % |
|      2077 |     496     3976    15376 |     2347     1485    161 |  0.000 % |
|      3216 |     496     3976    15376 |     2582     1610    182 |  0.000 % |
|      4924 |     496     3976    15376 |     2840     2277    169 |  0.000 % |
|      7486 |     496     3976    15376 |     3125     2260    161 |  0.000 % |
|     11330 |     496     3976    15376 |     3437     1843    167 |  0.000 % |
|     17096 |     496     3976    15376 |     3781     3412    203 |  0.000 % |
|     25745 |     496     3976    15376 |     4159     2042    150 |  0.000 % |
|     38719 |     496     3976    15376 |     4575     2344    176 |  0.000 % |
|     58180 |     496     3976    15376 |     5032     4496    138 |  0.000 % |
|     87372 |     496     3976    15376 |     5536     4145    170 |  0.000 % |
|    131161 |     496     3976    15376 |     6089     4871    190 |  0.000 % |
|    196845 |     496     3976    15376 |     6698     3937    220 |  0.000 % |
|    295371 |     496     3976    15376 |     7368     4227    196 |  0.000 % |
|    443160 |     496     3976    15376 |     8105     5800    230 |  0.000 % |
|    664843 |     496     3976    15376 |     8916     7367    177 |  0.000 % |
|    997368 |     496     3976    15376 |     9807     6530    208 |  0.000 % |
|   1496156 |     496     3976    15376 |    10788     5297    141 |  0.000 % |
|   2244338 |     496     3976    15376 |    11867     7748    217 |  0.000 % |
|   3366612 |     496     3976    15376 |    13054    10501    150 |  0.000 % |
|   5050023 |     496     3976    15376 |    14359     7785    208 |  0.000 % |
===============================================================================
restarts              : 10493
conflicts             : 6562557        (9634 /sec)
symconflicts          : 259169         (380 /sec)
decisions             : 13477889       (0.00 % random) (19786 /sec)
propagations          : 149085404      (218868 /sec)
sympropagations       : 1207802        (1773 /sec)
conflict literals     : 1378721317     (4.24 % deleted)
literals     : 1378721317     (4.24 % deleted)

HEURISTIC USAGES
random                : 0           
activity w/ lookahead : 0           
activity no lookahead : 0           
original sp           : 13477888    
sym count             : 0           

Memory used           : 75.00 MB
CPU time              : 681.167 s

SATISFIABLE
